Version identifier: 20.1.0.0 | 2020-11-10 | 9bedb6d68
Tried aggregator 3 times.
MIP Presolve eliminated 1281 rows and 668 columns.
MIP Presolve modified 3134 coefficients.
Aggregator did 133 substitutions.
Reduced MIP has 1795 rows, 1414 columns, and 5882 nonzeros.
Reduced MIP has 273 binaries, 1141 generals, 0 SOSs, and 0 indicators.
Presolve time = 0.02 sec. (8.63 ticks)
Found incumbent of value 2719.000000 after 0.04 sec. (15.88 ticks)
Probing fixed 40 vars, tightened 494 bounds.
Probing time = 0.00 sec. (1.20 ticks)
Tried aggregator 2 times.
Detecting symmetries...
MIP Presolve eliminated 764 rows and 80 columns.
MIP Presolve modified 153 coefficients.
Aggregator did 22 substitutions.
Reduced MIP has 1009 rows, 1312 columns, and 3278 nonzeros.
Reduced MIP has 433 binaries, 879 generals, 0 SOSs, and 0 indicators.
Presolve time = 0.01 sec. (4.91 ticks)
Probing time = 0.00 sec. (0.28 ticks)
Clique table members: 5.
MIP emphasis: balance optimality and feasibility.
MIP search method: dynamic search.
Parallel mode: deterministic, using up to 24 threads.
Root relaxation solution time = 0.01 sec. (2.45 ticks)

        Nodes                                         Cuts/
   Node  Left     Objective  IInf  Best Integer    Best Bound    ItCnt     Gap

*     0+    0                         2719.0000        0.0000           100.00%
*     0+    0                           49.0000        0.0000           100.00%
      0     0        0.0000    46       49.0000        0.0000      280  100.00%
      0     0        0.0909    99       49.0000     Cuts: 129      435   99.81%
      0     0        1.0000   107       49.0000     Cuts: 156      648   97.96%
      0     0        1.0811   313       49.0000      Cuts: 62      821   97.79%
      0     0        1.2697   359       49.0000      Cuts: 60      895   97.41%
      0     0        1.6316   388       49.0000     Cuts: 115      993   96.67%
      0     0        1.6316   352       49.0000      Cuts: 99     1074   96.67%
*     0+    0                           14.0000        1.6316            88.35%
      0     0        cutoff             14.0000       14.0000     1104    0.00%
Elapsed time = 1.08 sec. (97.47 ticks, tree = 0.01 MB, solutions = 3)

Implied bound cuts applied:  32
Flow cuts applied:  16
Mixed integer rounding cuts applied:  17
Zero-half cuts applied:  176
Lift and project cuts applied:  8
Gomory fractional cuts applied:  14

Root node processing (before b&c):
  Real time             =    1.08 sec. (97.59 ticks)
Parallel b&c, 24 threads:
  Real time             =    0.00 sec. (0.00 ticks)
  Sync time (average)   =    0.00 sec.
  Wait time (average)   =    0.00 sec.
                          ------------
Total (root+branch&cut) =    1.08 sec. (97.59 ticks)

Solution status = Optimal
Solution LB = 14
Solution UB = 14
Runtime = 1.08304 seconds
	Command being timed: "/home/min/git_repos/CS598MEBProject/CNT-ILP/build/cnt -s 2 ./output/k8_n20/simC_c1_k8_n20_u3_s3_del04.input-left.cnp"
	User time (seconds): 16.93
	System time (seconds): 0.08
	Percent of CPU this job got: 1509%
	Elapsed (wall clock) time (h:mm:ss or m:ss): 0:01.12
	Average shared text size (kbytes): 0
	Average unshared data size (kbytes): 0
	Average stack size (kbytes): 0
	Average total size (kbytes): 0
	Maximum resident set size (kbytes): 101984
	Average resident set size (kbytes): 0
	Major (requiring I/O) page faults: 0
	Minor (reclaiming a frame) page faults: 22802
	Voluntary context switches: 4944
	Involuntary context switches: 2365
	Swaps: 0
	File system inputs: 0
	File system outputs: 16
	Socket messages sent: 0
	Socket messages received: 0
	Signals delivered: 0
	Page size (bytes): 4096
	Exit status: 0
